words_easy_train/words_362_UNSAT.qaiger
aag 109 24 0 1 85
24
16
48
6
30
18
38
2
42
40
20
46
44
26
32
34
12
28
36
4
10
14
22
8
219
50 28 12
52 26 10
54 24 8
56 22 6
58 20 4
60 18 2
62 21 5
64 63 59
66 64 60
68 67 59
70 23 7
72 71 57
74 72 69
76 75 57
78 25 9
80 79 55
82 80 77
84 83 55
86 27 11
88 87 53
90 88 85
92 91 53
94 29 13
96 95 51
98 96 93
100 99 51
102 30 14
104 31 15
106 105 103
108 106 101
110 107 100
112 111 109
114 45 43
116 114 47
118 117 49
120 89 84
122 121 91
124 122 119
126 97 92
128 127 99
130 81 76
132 131 83
134 116 48
136 135 119
138 136 133
140 137 132
142 73 68
144 143 75
146 115 46
148 147 117
150 149 145
152 148 144
154 19 3
156 64 61
158 45 42
160 159 157
162 161 155
164 65 61
166 44 42
168 167 165
170 169 163
172 115 67
174 172 171
176 175 153
178 177 151
180 179 141
182 181 139
184 182 128
186 184 124
188 186 112
190 123 118
192 190 129
194 192 183
196 194 113
198 197 189
200 109 103
202 33 16
204 32 17
206 205 203
208 207 200
210 206 201
212 211 209
214 213 199
216 212 198
218 217 215
i0 1 x1[3]
i1 1 x2[7]
i2 2 y2[7]
i3 1 x2[2]
i4 1 x1[6]
i5 1 x1[0]
i6 2 y2[2]
i7 1 x2[0]
i8 2 y2[4]
i9 2 y2[3]
i10 1 x1[1]
i11 2 y2[6]
i12 2 y2[5]
i13 1 x1[4]
i14 1 x1[7]
i15 2 y2[0]
i16 1 x2[5]
i17 1 x1[5]
i18 2 y2[1]
i19 1 x2[1]
i20 1 x2[4]
i21 1 x2[6]
i22 1 x1[2]
i23 1 x2[3]
o0 bv[0]
c
simplified
  >=
    add
      1 x2
      1 x1
    >> 4
      2 y2
