words_easy_train/words_362_UNSAT.qaiger.qdimacs
p cnf 109 256
a 1 2 3 4 5 6 7 8 9 10 11 12 13 14 15 16 0
e 17 18 19 20 21 22 23 24 25 26 27 28 29 30 31 32 33 34 35 36 37 38 39 40 41 42 43 44 45 46 47 48 49 50 51 52 53 54 55 56 57 58 59 60 61 62 63 64 65 66 67 68 69 70 71 72 73 74 75 76 77 78 79 80 81 82 83 84 85 86 87 88 89 90 91 92 93 94 95 96 97 98 99 100 101 102 103 104 105 106 107 108 109 0
-14 -6 25 0
14 -25 0
6 -25 0
-13 -5 26 0
13 -26 0
5 -26 0
-12 -4 27 0
12 -27 0
4 -27 0
-11 -3 28 0
11 -28 0
3 -28 0
-10 -2 29 0
10 -29 0
2 -29 0
-9 -1 30 0
9 -30 0
1 -30 0
10 2 31 0
-10 -31 0
-2 -31 0
31 29 32 0
-31 -32 0
-29 -32 0
-32 -30 33 0
32 -33 0
30 -33 0
33 29 34 0
-33 -34 0
-29 -34 0
11 3 35 0
-11 -35 0
-3 -35 0
35 28 36 0
-35 -36 0
-28 -36 0
-36 34 37 0
36 -37 0
-34 -37 0
37 28 38 0
-37 -38 0
-28 -38 0
12 4 39 0
-12 -39 0
-4 -39 0
39 27 40 0
-39 -40 0
-27 -40 0
-40 38 41 0
40 -41 0
-38 -41 0
41 27 42 0
-41 -42 0
-27 -42 0
13 5 43 0
-13 -43 0
-5 -43 0
43 26 44 0
-43 -44 0
-26 -44 0
-44 42 45 0
44 -45 0
-42 -45 0
45 26 46 0
-45 -46 0
-26 -46 0
14 6 47 0
-14 -47 0
-6 -47 0
47 25 48 0
-47 -48 0
-25 -48 0
-48 46 49 0
48 -49 0
-46 -49 0
49 25 50 0
-49 -50 0
-25 -50 0
-15 -7 51 0
15 -51 0
7 -51 0
15 7 52 0
-15 -52 0
-7 -52 0
52 51 53 0
-52 -53 0
-51 -53 0
-53 50 54 0
53 -54 0
-50 -54 0
53 -50 55 0
-53 -55 0
50 -55 0
55 54 56 0
-55 -56 0
-54 -56 0
22 21 57 0
-22 -57 0
-21 -57 0
-57 23 58 0
57 -58 0
-23 -58 0
58 24 59 0
-58 -59 0
-24 -59 0
44 -42 60 0
-44 -60 0
42 -60 0
60 45 61 0
-60 -61 0
-45 -61 0
-61 59 62 0
61 -62 0
-59 -62 0
48 -46 63 0
-48 -63 0
46 -63 0
63 49 64 0
-63 -64 0
-49 -64 0
40 -38 65 0
-40 -65 0
38 -65 0
65 41 66 0
-65 -66 0
-41 -66 0
-58 -24 67 0
58 -67 0
24 -67 0
67 59 68 0
-67 -68 0
-59 -68 0
-68 66 69 0
68 -69 0
-66 -69 0
68 -66 70 0
-68 -70 0
66 -70 0
36 -34 71 0
-36 -71 0
34 -71 0
71 37 72 0
-71 -72 0
-37 -72 0
57 -23 73 0
-57 -73 0
23 -73 0
73 58 74 0
-73 -74 0
-58 -74 0
74 72 75 0
-74 -75 0
-72 -75 0
-74 -72 76 0
74 -76 0
72 -76 0
9 1 77 0
-9 -77 0
-1 -77 0
-32 30 78 0
32 -78 0
-30 -78 0
22 -21 79 0
-22 -79 0
21 -79 0
79 78 80 0
-79 -80 0
-78 -80 0
80 77 81 0
-80 -81 0
-77 -81 0
32 30 82 0
-32 -82 0
-30 -82 0
-22 -21 83 0
22 -83 0
21 -83 0
83 82 84 0
-83 -84 0
-82 -84 0
84 81 85 0
-84 -85 0
-81 -85 0
57 33 86 0
-57 -86 0
-33 -86 0
-86 85 87 0
86 -87 0
-85 -87 0
87 76 88 0
-87 -88 0
-76 -88 0
88 75 89 0
-88 -89 0
-75 -89 0
89 70 90 0
-89 -90 0
-70 -90 0
90 69 91 0
-90 -91 0
-69 -91 0
-91 -64 92 0
91 -92 0
64 -92 0
-92 -62 93 0
92 -93 0
62 -93 0
-93 -56 94 0
93 -94 0
56 -94 0
61 -59 95 0
-61 -95 0
59 -95 0
-95 64 96 0
95 -96 0
-64 -96 0
-96 91 97 0
96 -97 0
-91 -97 0
-97 56 98 0
97 -98 0
-56 -98 0
98 94 99 0
-98 -99 0
-94 -99 0
54 51 100 0
-54 -100 0
-51 -100 0
16 -8 101 0
-16 -101 0
8 -101 0
-16 8 102 0
16 -102 0
-8 -102 0
102 101 103 0
-102 -103 0
-101 -103 0
103 -100 104 0
-103 -104 0
100 -104 0
-103 100 105 0
103 -105 0
-100 -105 0
105 104 106 0
-105 -106 0
-104 -106 0
106 99 107 0
-106 -107 0
-99 -107 0
-106 -99 108 0
106 -108 0
99 -108 0
108 107 109 0
-108 -109 0
-107 -109 0
-109 0
